c b=10,c=513
p cnf 30 148
1 10 -20 0
10 -29 0
1 -10 20 0
1 -10 29 0
9 -19 0
1 9 -28 0
-9 19 0
1 -9 28 0
8 -18 0
1 8 -27 0
-8 18 0
1 -8 27 0
7 -17 0
1 7 -26 0
-7 17 0
1 -7 26 0
6 -16 0
1 6 -25 0
-6 16 0
1 -6 25 0
5 -15 0
1 5 -24 0
-5 15 0
1 -5 24 0
4 -14 0
1 4 -23 0
-4 14 0
1 -4 23 0
3 -13 0
1 3 -22 0
-3 13 0
1 -3 22 0
2 -12 0
1 2 -21 0
-2 12 0
1 -2 21 0
1 -11 0
1 -30 0
-1 10 20 0
2 10 -21 0
-1 -10 -20 0
-1 2 -10 21 0
2 -10 29 0
2 9 -28 0
2 -9 28 0
2 8 -27 0
2 -8 27 0
2 7 -26 0
2 -7 26 0
2 6 -25 0
2 -6 25 0
2 5 -24 0
2 -5 24 0
2 4 -23 0
2 -4 23 0
2 3 -22 0
2 -3 22 0
2 -30 0
-2 10 21 0
3 10 -22 0
-1 -2 -10 -21 0
-1 -2 3 -10 22 0
3 -10 29 0
3 9 -28 0
3 -9 28 0
3 8 -27 0
3 -8 27 0
3 7 -26 0
3 -7 26 0
3 6 -25 0
3 -6 25 0
3 5 -24 0
3 -5 24 0
3 4 -23 0
3 -4 23 0
3 -30 0
-3 10 22 0
4 10 -23 0
-1 -2 -3 -10 -22 0
-1 -2 -3 4 -10 23 0
4 -10 29 0
4 9 -28 0
4 -9 28 0
4 8 -27 0
4 -8 27 0
4 7 -26 0
4 -7 26 0
4 6 -25 0
4 -6 25 0
4 5 -24 0
4 -5 24 0
4 -30 0
-4 10 23 0
5 10 -24 0
-1 -2 -3 -4 -10 -23 0
-1 -2 -3 -4 5 -10 24 0
5 -10 29 0
5 9 -28 0
5 -9 28 0
5 8 -27 0
5 -8 27 0
5 7 -26 0
5 -7 26 0
5 6 -25 0
5 -6 25 0
5 -30 0
-5 10 24 0
6 10 -25 0
-1 -2 -3 -4 -5 -10 -24 0
-1 -2 -3 -4 -5 6 -10 25 0
6 -10 29 0
6 9 -28 0
6 -9 28 0
6 8 -27 0
6 -8 27 0
6 7 -26 0
6 -7 26 0
6 -30 0
-6 10 25 0
7 10 -26 0
-1 -2 -3 -4 -5 -6 -10 -25 0
-1 -2 -3 -4 -5 -6 7 -10 26 0
7 -10 29 0
7 9 -28 0
7 -9 28 0
7 8 -27 0
7 -8 27 0
7 -30 0
-7 10 26 0
8 10 -27 0
-1 -2 -3 -4 -5 -6 -7 -10 -26 0
-1 -2 -3 -4 -5 -6 -7 8 -10 27 0
8 -10 29 0
8 9 -28 0
8 -9 28 0
8 -30 0
-8 10 27 0
9 10 -28 0
-1 -2 -3 -4 -5 -6 -7 -8 -10 -27 0
-1 -2 -3 -4 -5 -6 -7 -8 9 -10 28 0
9 -10 29 0
9 -30 0
-9 10 28 0
10 -30 0
-1 -2 -3 -4 -5 -6 -7 -8 -9 -10 -28 0
-1 -2 -3 -4 -5 -6 -7 -8 -9 -10 30 0
-1 -2 -3 -4 -5 -6 -7 -8 -9 -29 0
-1 11 0
